letting n =  10
letting blocks =  [[1, 3], [1, 7], [1, 8], [2, 5], [2, 10], [3, 6], [4, 2], [4, 3], [5, 3], [5, 6], [5, 8], [6, 9], [7, 9], [8, 8], [9, 2], [9, 5], [9, 7], [10, 1], [10, 8], [10, 10]]
